50
    1   418   500
    2   651   776
    3   668   526
    4   744    79
    5   646   864
    6   165   518
    7   966   801
    8   952   680
    9   347   193
   10   303   766
   11   771   272
   12   799   847
   13   759   160
   14   870   632
   15   931   633
   16   944   969
   17   682   393
   18   174   212
   19   223   701
   20   558   474
   21   350   857
   22    11   420
   23   592   496
   24   788   475
   25   501     1
   26    43   492
   27   812   958
   28   508   788
   29   598   938
   30   437   875
   31    33   150
   32   588   856
   33   352    16
   34    19    25
   35   888   304
   36   121   541
   37   221   472
   38   835   281
   39   211   344
   40   312   739
   41    64   427
   42   394   838
   43   486   306
   44    47   890
   45   287   403
   46   223   959
   47   625   102
   48   569   790
   49   825   419
   50   414    12
8723
